NAME          BLANK   
ROWS
 N  OBJROW
 L  R0000000
COLUMNS
    C0000000  OBJROW     -152.         R0000000  617.        
    C0000001  OBJROW     -859.         R0000000  108.        
    C0000002  OBJROW     -384.         R0000000  104.        
    C0000003  OBJROW     -339.         R0000000  9.          
    C0000004  OBJROW     -399.         R0000000  311.        
    C0000005  OBJROW     -651.         R0000000  45.         
    C0000006  OBJROW     -95.          R0000000  140.        
    C0000007  OBJROW     -932.         R0000000  116.        
    C0000008  OBJROW     -71.          R0000000  999.        
    C0000009  OBJROW     -664.         R0000000  669.        
    C0000010  OBJROW     -541.         R0000000  764.        
    C0000011  OBJROW     -675.         R0000000  884.        
    C0000012  OBJROW     -768.         R0000000  341.        
RHS
    RHS       R0000000  13852.      
BOUNDS
 BV BOUND     C0000000  1.          
 BV BOUND     C0000001  1.          
 BV BOUND     C0000002  1.          
 BV BOUND     C0000003  1.          
 BV BOUND     C0000004  1.          
 BV BOUND     C0000005  1.          
 BV BOUND     C0000006  1.          
 BV BOUND     C0000007  1.          
 BV BOUND     C0000008  1.          
 BV BOUND     C0000009  1.          
 BV BOUND     C0000010  1.          
 BV BOUND     C0000011  1.          
 BV BOUND     C0000012  1.          
ENDATA
